
******************************************************************************
This program contains Ipopt, a library for large-scale nonlinear optimization.
 Ipopt is released as open source code under the Eclipse Public License (EPL).
         For more information visit https://github.com/coin-or/Ipopt
******************************************************************************

This is Ipopt version 3.13.4, running with linear solver mumps.
NOTE: Other linear solvers might be more efficient (see Ipopt documentation).

Number of nonzeros in equality constraint Jacobian...:        0
Number of nonzeros in inequality constraint Jacobian.:       12
Number of nonzeros in Lagrangian Hessian.............:        0

Total number of variables............................:        4
                     variables with only lower bounds:        0
                variables with lower and upper bounds:        4
                     variables with only upper bounds:        0
Total number of equality constraints.................:        0
Total number of inequality constraints...............:        3
        inequality constraints with only lower bounds:        0
   inequality constraints with lower and upper bounds:        0
        inequality constraints with only upper bounds:        3

iter    objective    inf_pr   inf_du lg(mu)  ||d||  lg(rg) alpha_du alpha_pr  ls
   0 -1.1476649e+03 0.00e+00 5.34e-01   0.0 0.00e+00    -  0.00e+00 0.00e+00   0
   1 -1.1476649e+03 0.00e+00 7.34e-03  -3.5 5.44e-03    -  9.90e-01 1.00e+00f  1
   2 -1.1476650e+03 0.00e+00 3.72e-03  -5.5 5.62e-03    -  9.90e-01 1.00e+00h  1
   3 -1.1476650e+03 0.00e+00 3.95e-03  -7.5 5.62e-03    -  9.90e-01 1.00e+00h  1
   4 -1.1476651e+03 0.00e+00 4.23e-03  -5.6 5.62e-03    -  1.00e+00 1.00e+00h  1
   5 -1.1476651e+03 0.00e+00 4.53e-03  -7.7 5.61e-03    -  1.00e+00 1.00e+00h  1
   6 -1.1476652e+03 0.00e+00 4.86e-03  -9.7 5.61e-03    -  1.00e+00 1.00e+00h  1
   7 -1.1476653e+03 0.00e+00 5.20e-03 -11.0 5.98e-03    -  1.00e+00 1.00e+00h  1
   8 -1.1476654e+03 0.00e+00 5.58e-03 -11.0 6.40e-03    -  1.00e+00 1.00e+00h  1
   9 -1.1476655e+03 0.00e+00 5.97e-03 -11.0 6.86e-03    -  1.00e+00 1.00e+00h  1
iter    objective    inf_pr   inf_du lg(mu)  ||d||  lg(rg) alpha_du alpha_pr  ls
  10 -1.1476657e+03 0.00e+00 6.41e-03 -11.0 7.35e-03    -  1.00e+00 1.00e+00h  1
  11 -1.1476658e+03 0.00e+00 6.88e-03 -11.0 7.87e-03    -  1.00e+00 1.00e+00h  1
  12 -1.1476660e+03 0.00e+00 7.38e-03 -11.0 8.44e-03    -  1.00e+00 1.00e+00h  1
  13 -1.1476662e+03 0.00e+00 7.92e-03 -11.0 9.04e-03    -  1.00e+00 1.00e+00h  1
  14 -1.1476664e+03 0.00e+00 8.49e-03 -11.0 9.69e-03    -  1.00e+00 1.00e+00h  1
  15 -1.1476666e+03 0.00e+00 1.11e-02 -11.0 1.04e-02    -  1.00e+00 1.00e+00h  1
  16 -1.1476669e+03 0.00e+00 1.19e-02 -11.0 1.11e-02    -  1.00e+00 1.00e+00h  1
  17 -1.1476672e+03 0.00e+00 1.28e-02 -11.0 1.19e-02    -  1.00e+00 1.00e+00h  1
  18 -1.1476675e+03 0.00e+00 1.37e-02 -11.0 1.28e-02    -  1.00e+00 1.00e+00h  1
  19 -1.1476679e+03 0.00e+00 1.47e-02 -11.0 1.37e-02    -  1.00e+00 1.00e+00h  1
iter    objective    inf_pr   inf_du lg(mu)  ||d||  lg(rg) alpha_du alpha_pr  ls
  20 -1.1476684e+03 0.00e+00 1.57e-02 -11.0 1.47e-02    -  1.00e+00 1.00e+00h  1
  21 -1.1476689e+03 0.00e+00 1.68e-02 -11.0 1.57e-02    -  1.00e+00 1.00e+00h  1
  22 -1.1476695e+03 0.00e+00 1.80e-02 -11.0 1.68e-02    -  1.00e+00 1.00e+00h  1
  23 -1.1476702e+03 0.00e+00 1.93e-02 -11.0 1.80e-02    -  1.00e+00 1.00e+00h  1
  24 -1.1476710e+03 0.00e+00 2.07e-02 -11.0 1.93e-02    -  1.00e+00 1.00e+00h  1
  25 -1.1476719e+03 0.00e+00 2.22e-02 -11.0 2.07e-02    -  1.00e+00 1.00e+00h  1
  26 -1.1476729e+03 0.00e+00 2.38e-02 -11.0 2.22e-02    -  1.00e+00 1.00e+00h  1
  27 -1.1476741e+03 0.00e+00 2.55e-02 -11.0 2.38e-02    -  1.00e+00 1.00e+00h  1
  28 -1.1476755e+03 0.00e+00 2.73e-02 -11.0 2.55e-02    -  1.00e+00 1.00e+00h  1
  29 -1.1476770e+03 0.00e+00 2.92e-02 -11.0 2.73e-02    -  1.00e+00 1.00e+00h  1
iter    objective    inf_pr   inf_du lg(mu)  ||d||  lg(rg) alpha_du alpha_pr  ls
  30 -1.1476788e+03 0.00e+00 3.13e-02 -11.0 2.92e-02    -  1.00e+00 1.00e+00h  1

Number of Iterations....: 30

                                   (scaled)                 (unscaled)
Objective...............:  -1.1476788246280228e+03   -1.1476788246280228e+03
Dual infeasibility......:   3.1320678008665455e-02    3.1320678008665455e-02
Constraint violation....:   0.0000000000000000e+00    0.0000000000000000e+00
Complementarity.........:   9.9999999998258811e-12    9.9999999998258811e-12
Overall NLP error.......:   3.1320678008665455e-02    3.1320678008665455e-02


Number of objective function evaluations             = 31
Number of objective gradient evaluations             = 31
Number of equality constraint evaluations            = 0
Number of inequality constraint evaluations          = 31
Number of equality constraint Jacobian evaluations   = 0
Number of inequality constraint Jacobian evaluations = 31
Number of Lagrangian Hessian evaluations             = 0
Total CPU secs in IPOPT (w/o function evaluations)   =      8.052
Total CPU secs in NLP function evaluations           =      0.029

EXIT: Maximum Number of Iterations Exceeded.
